890.0,26.0,317.0,264.0
889.0,23.0,323.0,269.0
890.0,19.0,328.0,273.0
899.0,13.0,329.0,274.0
909.0,54.0,317.0,225.0
916.0,51.0,319.0,226.0
925.0,48.0,319.0,226.0
947.0,57.0,285.0,237.0
925.0,50.0,285.0,237.0
936.0,46.0,285.0,237.0
945.0,47.0,285.0,237.0
949.0,56.0,285.0,237.0
956.0,63.0,285.0,237.0
966.0,75.0,285.0,237.0
972.0,83.0,285.0,237.0
998.0,86.0,212.0,208.0
1001.0,95.0,212.0,208.0
999.0,96.0,212.0,208.0
999.0,96.0,212.0,208.0
1002.0,100.0,212.0,208.0
1007.0,103.0,212.0,208.0
1012.0,107.0,212.0,208.0
1009.0,127.0,183.0,160.0
999.0,127.0,183.0,160.0
993.0,127.0,183.0,160.0
988.0,126.0,183.0,160.0
986.0,128.0,183.0,160.0
984.0,130.0,183.0,160.0
982.0,131.0,183.0,160.0
980.0,130.0,183.0,160.0
977.0,128.0,183.0,160.0
984.0,150.0,183.0,109.0
964.0,151.0,183.0,109.0
959.0,152.0,183.0,109.0
956.0,151.0,183.0,109.0
954.0,149.0,183.0,109.0
953.0,148.0,183.0,109.0
950.0,147.0,183.0,109.0
947.0,144.0,192.0,114.0
952.0,142.0,192.0,114.0
956.0,140.0,192.0,114.0
947.0,152.0,173.0,94.0
935.0,149.0,173.0,94.0
933.0,148.0,173.0,94.0
932.0,146.0,173.0,94.0
931.0,142.0,173.0,94.0
931.0,143.0,173.0,94.0
929.0,140.0,173.0,94.0
929.0,137.0,173.0,94.0
941.0,123.0,140.0,111.0
941.0,120.0,140.0,111.0
944.0,113.0,140.0,111.0
946.0,109.0,140.0,111.0
947.0,103.0,140.0,111.0
920.0,121.0,147.0,98.0
922.0,120.0,147.0,98.0
919.0,120.0,147.0,98.0
917.0,119.0,147.0,98.0
929.0,124.0,117.0,96.0
927.0,124.0,117.0,96.0
924.0,123.0,117.0,96.0
921.0,122.0,117.0,96.0
916.0,120.0,117.0,96.0
912.0,116.0,117.0,96.0
910.0,112.0,117.0,96.0
908.0,109.0,117.0,96.0
908.0,106.0,117.0,96.0
906.0,100.0,123.0,101.0
908.0,98.0,123.0,101.0
907.0,93.0,123.0,101.0
904.0,87.0,129.0,106.0
903.0,84.0,129.0,106.0
899.0,78.0,129.0,106.0
899.0,71.0,129.0,106.0
917.0,86.0,141.0,85.0
908.0,79.0,141.0,85.0
909.0,76.0,141.0,85.0
907.0,70.0,141.0,85.0
909.0,66.0,134.0,81.0
910.0,59.0,134.0,81.0
906.0,53.0,134.0,81.0
903.0,48.0,134.0,81.0
903.0,45.0,128.0,77.0
921.0,51.0,127.0,95.0
917.0,37.0,127.0,95.0
915.0,31.0,121.0,90.0
911.0,24.0,121.0,90.0
910.0,19.0,121.0,90.0
909.0,17.0,121.0,90.0
910.0,13.0,121.0,90.0
909.0,9.0,121.0,90.0
911.0,5.0,115.0,86.0
911.0,1.0,115.0,86.0
910.0,0.0,115.0,86.0
912.0,0.0,110.0,82.0
913.0,0.0,104.0,78.0
913.0,0.0,104.0,78.0
915.0,0.0,100.0,74.0
912.0,-1.0,100.0,74.0
903.0,0.0,100.0,74.0
902.0,-21.0,100.0,74.0
899.0,-31.0,104.0,78.0
0
0
0
0
0
0
0
0
0
0
0
0
0
0
0
0
0
0
0
0
0
0
0
0
0
0
0
0
0
0
0
0
0
0
0
0
0
0
0
0
0
0
0
0
0
848.0,2.0,98.0,53.0
842.0,9.0,98.0,53.0
836.0,16.0,98.0,53.0
834.0,23.0,98.0,53.0
828.0,28.0,98.0,53.0
823.0,33.0,98.0,53.0
822.0,36.0,98.0,53.0
838.0,44.0,95.0,39.0
839.0,44.0,95.0,39.0
833.0,46.0,95.0,39.0
833.0,51.0,95.0,39.0
835.0,55.0,95.0,39.0
831.0,58.0,95.0,39.0
824.0,60.0,90.0,37.0
820.0,65.0,90.0,37.0
812.0,70.0,95.0,39.0
803.0,75.0,95.0,39.0
794.0,77.0,100.0,41.0
814.0,73.0,61.0,54.0
809.0,77.0,61.0,54.0
802.0,78.0,61.0,54.0
795.0,81.0,61.0,54.0
790.0,83.0,61.0,54.0
784.0,86.0,61.0,54.0
780.0,89.0,61.0,54.0
780.0,91.0,61.0,54.0
780.0,90.0,61.0,54.0
779.0,90.0,61.0,54.0
779.0,92.0,58.0,51.0
779.0,92.0,58.0,51.0
778.0,91.0,58.0,51.0
775.0,92.0,58.0,51.0
774.0,93.0,58.0,51.0
773.0,92.0,58.0,51.0
772.0,91.0,58.0,51.0
771.0,90.0,58.0,51.0
771.0,88.0,58.0,51.0
772.0,85.0,58.0,51.0
770.0,83.0,58.0,51.0
770.0,76.0,58.0,51.0
771.0,71.0,58.0,51.0
771.0,65.0,61.0,54.0
770.0,59.0,61.0,54.0
770.0,55.0,61.0,54.0
770.0,50.0,61.0,54.0
745.0,50.0,83.0,59.0
746.0,48.0,83.0,59.0
746.0,44.0,83.0,59.0
746.0,43.0,83.0,59.0
746.0,41.0,83.0,59.0
746.0,42.0,83.0,59.0
747.0,41.0,83.0,59.0
745.0,39.0,83.0,59.0
729.0,29.0,94.0,46.0
728.0,29.0,94.0,46.0
731.0,28.0,94.0,46.0
727.0,26.0,94.0,46.0
727.0,24.0,94.0,46.0
727.0,24.0,94.0,46.0
729.0,25.0,94.0,46.0
730.0,26.0,90.0,44.0
730.0,27.0,90.0,44.0
716.0,5.0,95.0,69.0
711.0,6.0,95.0,69.0
710.0,7.0,95.0,69.0
707.0,8.0,95.0,69.0
706.0,11.0,95.0,69.0
702.0,11.0,95.0,69.0
702.0,14.0,95.0,69.0
698.0,15.0,95.0,69.0
696.0,18.0,95.0,69.0
695.0,21.0,95.0,69.0
699.0,23.0,95.0,48.0
704.0,28.0,95.0,48.0
699.0,29.0,100.0,50.0
697.0,32.0,100.0,50.0
696.0,33.0,100.0,50.0
695.0,34.0,100.0,50.0
694.0,36.0,100.0,50.0
688.0,40.0,100.0,50.0
684.0,42.0,100.0,50.0
681.0,45.0,100.0,50.0
674.0,49.0,100.0,50.0
668.0,50.0,105.0,53.0
663.0,54.0,105.0,53.0
659.0,57.0,105.0,53.0
655.0,58.0,105.0,53.0
652.0,56.0,110.0,56.0
645.0,55.0,110.0,56.0
649.0,43.0,123.0,53.0
650.0,46.0,123.0,53.0
648.0,45.0,123.0,53.0
649.0,43.0,123.0,53.0
651.0,40.0,123.0,53.0
649.0,38.0,123.0,53.0
647.0,36.0,123.0,53.0
647.0,33.0,123.0,53.0
650.0,31.0,117.0,50.0
647.0,28.0,117.0,50.0
643.0,24.0,117.0,50.0
639.0,23.0,117.0,50.0
639.0,21.0,117.0,50.0
634.0,16.0,117.0,50.0
630.0,10.0,123.0,53.0
631.0,8.0,123.0,53.0
633.0,8.0,117.0,50.0
630.0,8.0,123.0,53.0
628.0,5.0,123.0,53.0
627.0,4.0,123.0,53.0
619.0,3.0,123.0,53.0
615.0,1.0,129.0,56.0
607.0,1.0,136.0,58.0
608.0,1.0,136.0,58.0
609.0,1.0,136.0,58.0
607.0,0.0,136.0,58.0
605.0,1.0,136.0,58.0
608.0,0.0,129.0,56.0
611.0,0.0,123.0,53.0
610.0,-1.0,123.0,53.0
604.0,-1.0,129.0,56.0
603.0,-1.0,129.0,56.0
601.0,0.0,129.0,56.0
595.0,0.0,136.0,58.0
589.0,0.0,142.0,61.0
585.0,-1.0,150.0,64.0
583.0,0.0,150.0,64.0
581.0,-1.0,150.0,64.0
579.0,0.0,150.0,64.0
578.0,-1.0,150.0,64.0
547.0,0.0,178.0,45.0
533.0,7.0,178.0,45.0
530.0,9.0,178.0,45.0
526.0,8.0,178.0,45.0
520.0,11.0,178.0,45.0
520.0,10.0,178.0,45.0
524.0,6.0,232.0,61.0
511.0,8.0,232.0,61.0
508.0,12.0,232.0,61.0
507.0,10.0,232.0,61.0
499.0,10.0,232.0,61.0
501.0,13.0,232.0,61.0
492.0,13.0,244.0,64.0
559.0,6.0,144.0,79.0
556.0,7.0,144.0,79.0
557.0,9.0,144.0,79.0
557.0,12.0,144.0,79.0
556.0,14.0,144.0,79.0
562.0,13.0,144.0,79.0
564.0,14.0,144.0,79.0
566.0,15.0,144.0,79.0
566.0,18.0,144.0,79.0
568.0,24.0,144.0,79.0
574.0,30.0,144.0,79.0
576.0,37.0,151.0,83.0
578.0,48.0,151.0,83.0
590.0,3.0,150.0,147.0
586.0,9.0,150.0,147.0
587.0,17.0,150.0,147.0
585.0,20.0,158.0,154.0
589.0,31.0,158.0,154.0
590.0,37.0,165.0,162.0
592.0,50.0,165.0,162.0
595.0,57.0,165.0,162.0
597.0,63.0,165.0,162.0
596.0,88.0,174.0,170.0
603.0,105.0,174.0,170.0
614.0,121.0,174.0,170.0
622.0,132.0,182.0,179.0
634.0,140.0,182.0,179.0
648.0,136.0,182.0,179.0
658.0,149.0,174.0,170.0
666.0,157.0,174.0,170.0
660.0,38.0,195.0,268.0
679.0,39.0,195.0,268.0
689.0,41.0,195.0,268.0
698.0,45.0,195.0,268.0
708.0,46.0,195.0,268.0
717.0,48.0,195.0,268.0
721.0,47.0,195.0,268.0
723.0,42.0,205.0,281.0
741.0,9.0,177.0,375.0
743.0,10.0,177.0,375.0
749.0,13.0,177.0,375.0
756.0,16.0,177.0,375.0
760.0,18.0,177.0,375.0
765.0,16.0,177.0,375.0
769.0,13.0,177.0,375.0
772.0,12.0,177.0,375.0
739.0,25.0,226.0,450.0
752.0,30.0,226.0,450.0
755.0,29.0,226.0,450.0
750.0,25.0,226.0,450.0
746.0,26.0,226.0,450.0
738.0,20.0,226.0,450.0
733.0,16.0,226.0,450.0
727.0,14.0,226.0,450.0
716.0,13.0,226.0,450.0
698.0,15.0,226.0,450.0
680.0,10.0,226.0,450.0
597.0,11.0,339.0,432.0
580.0,16.0,339.0,432.0
574.0,6.0,339.0,432.0
566.0,-1.0,339.0,432.0
542.0,0.0,339.0,432.0
503.0,-26.0,339.0,432.0
486.0,-40.0,339.0,432.0
470.0,-46.0,339.0,432.0
449.0,-49.0,339.0,432.0
438.0,-56.0,339.0,432.0
427.0,-62.0,339.0,432.0
423.0,-61.0,323.0,411.0
411.0,-70.0,323.0,411.0
412.0,-69.0,307.0,392.0
407.0,-67.0,458.0,344.0
399.0,-75.0,458.0,344.0
390.0,-87.0,458.0,344.0
385.0,-95.0,458.0,344.0
380.0,-104.0,458.0,344.0
377.0,-110.0,458.0,344.0
368.0,-110.0,400.0,250.0
350.0,-118.0,420.0,262.0
343.0,-117.0,420.0,262.0
410.0,9.0,315.0,149.0
413.0,9.0,315.0,149.0
411.0,5.0,315.0,149.0
411.0,4.0,315.0,149.0
408.0,11.0,315.0,149.0
413.0,18.0,300.0,142.0
414.0,22.0,300.0,142.0
414.0,26.0,300.0,142.0
408.0,27.0,315.0,149.0
476.0,19.0,166.0,145.0
476.0,23.0,166.0,145.0
478.0,25.0,166.0,145.0
481.0,27.0,166.0,145.0
483.0,32.0,166.0,145.0
486.0,45.0,166.0,145.0
492.0,56.0,158.0,138.0
525.0,74.0,107.0,101.0
522.0,78.0,107.0,101.0
522.0,80.0,107.0,101.0
521.0,85.0,107.0,101.0
521.0,86.0,107.0,101.0
521.0,88.0,107.0,101.0
518.0,89.0,107.0,101.0
516.0,91.0,107.0,101.0
512.0,92.0,107.0,101.0
496.0,69.0,187.0,129.0
492.0,69.0,187.0,129.0
492.0,68.0,187.0,129.0
490.0,68.0,187.0,129.0
483.0,64.0,196.0,135.0
481.0,65.0,196.0,135.0
476.0,64.0,196.0,135.0
470.0,59.0,206.0,142.0
459.0,78.0,208.0,102.0
445.0,80.0,208.0,102.0
452.0,82.0,198.0,97.0
451.0,82.0,198.0,97.0
468.0,58.0,189.0,124.0
465.0,62.0,189.0,124.0
463.0,61.0,189.0,124.0
463.0,60.0,189.0,124.0
466.0,58.0,189.0,124.0
465.0,61.0,180.0,118.0
465.0,58.0,180.0,118.0
493.0,45.0,164.0,114.0
486.0,47.0,164.0,114.0
484.0,48.0,164.0,114.0
482.0,47.0,164.0,114.0
484.0,47.0,164.0,114.0
487.0,44.0,164.0,114.0
511.0,36.0,128.0,111.0
504.0,39.0,128.0,111.0
505.0,38.0,128.0,111.0
511.0,38.0,128.0,111.0
512.0,37.0,128.0,111.0
527.0,38.0,103.0,84.0
525.0,40.0,103.0,84.0
530.0,39.0,103.0,84.0
532.0,38.0,103.0,84.0
536.0,36.0,103.0,84.0
539.0,20.0,106.0,65.0
541.0,22.0,106.0,65.0
543.0,18.0,111.0,68.0
549.0,16.0,106.0,65.0
554.0,12.0,106.0,65.0
560.0,10.0,106.0,65.0
567.0,6.0,106.0,65.0
572.0,3.0,106.0,65.0
576.0,-1.0,106.0,65.0
585.0,0.0,106.0,65.0
592.0,-1.0,101.0,62.0
597.0,0.0,101.0,62.0
603.0,-1.0,96.0,59.0
605.0,-18.0,96.0,59.0
613.0,-21.0,96.0,59.0
622.0,-21.0,92.0,56.0
629.0,-24.0,92.0,56.0
638.0,-24.0,92.0,56.0
647.0,-24.0,92.0,56.0
656.0,-24.0,92.0,56.0
668.0,-23.0,87.0,53.0
677.0,-22.0,87.0,53.0
682.0,-22.0,87.0,53.0
691.0,-22.0,87.0,53.0
700.0,-21.0,87.0,53.0
732.0,0.0,95.0,52.0
745.0,3.0,95.0,52.0
755.0,11.0,90.0,50.0
760.0,17.0,90.0,50.0
769.0,26.0,90.0,50.0
773.0,31.0,90.0,50.0
776.0,34.0,90.0,50.0
783.0,39.0,90.0,50.0
786.0,43.0,90.0,50.0
792.0,46.0,90.0,50.0
800.0,51.0,90.0,50.0
805.0,55.0,90.0,50.0
811.0,60.0,90.0,50.0
817.0,67.0,90.0,50.0
824.0,73.0,90.0,50.0
830.0,78.0,90.0,50.0
836.0,84.0,90.0,50.0
845.0,94.0,90.0,50.0
856.0,103.0,90.0,50.0
863.0,106.0,90.0,50.0
870.0,111.0,95.0,52.0
875.0,115.0,100.0,55.0
883.0,120.0,100.0,55.0
889.0,124.0,95.0,52.0
893.0,126.0,95.0,52.0
897.0,127.0,95.0,52.0
897.0,128.0,95.0,52.0
894.0,126.0,95.0,52.0
894.0,124.0,95.0,52.0
891.0,121.0,95.0,52.0
890.0,120.0,90.0,50.0
887.0,121.0,90.0,50.0
880.0,121.0,95.0,52.0
876.0,120.0,95.0,52.0
874.0,118.0,95.0,52.0
872.0,119.0,95.0,52.0
870.0,118.0,95.0,52.0
870.0,117.0,95.0,52.0
868.0,117.0,95.0,52.0
866.0,114.0,95.0,52.0
862.0,112.0,95.0,52.0
860.0,114.0,90.0,50.0
859.0,114.0,90.0,50.0
858.0,112.0,90.0,50.0
849.0,109.0,95.0,52.0
846.0,111.0,95.0,52.0
841.0,114.0,95.0,52.0
836.0,118.0,95.0,52.0
826.0,121.0,100.0,55.0
818.0,125.0,105.0,57.0
809.0,131.0,105.0,57.0
802.0,135.0,110.0,60.0
803.0,128.0,78.0,101.0
801.0,134.0,78.0,101.0
798.0,139.0,78.0,101.0
795.0,141.0,78.0,101.0
792.0,147.0,78.0,101.0
788.0,150.0,78.0,101.0
780.0,153.0,82.0,106.0
772.0,157.0,82.0,106.0
764.0,159.0,82.0,106.0
757.0,161.0,82.0,106.0
749.0,167.0,82.0,106.0
746.0,173.0,82.0,106.0
739.0,177.0,82.0,106.0
738.0,183.0,82.0,106.0
731.0,188.0,86.0,111.0
729.0,191.0,86.0,111.0
733.0,214.0,127.0,65.0
735.0,222.0,127.0,65.0
729.0,224.0,127.0,65.0
706.0,229.0,127.0,65.0
728.0,217.0,137.0,61.0
722.0,222.0,137.0,61.0
705.0,228.0,137.0,61.0
715.0,250.0,137.0,61.0
735.0,229.0,123.0,43.0
727.0,231.0,123.0,43.0
725.0,234.0,117.0,41.0
726.0,237.0,112.0,39.0
725.0,240.0,112.0,39.0
728.0,242.0,112.0,39.0
729.0,244.0,112.0,39.0
733.0,249.0,106.0,37.0
734.0,251.0,106.0,37.0
737.0,255.0,106.0,37.0
741.0,254.0,101.0,35.0
740.0,249.0,101.0,35.0
741.0,240.0,101.0,35.0
741.0,231.0,101.0,35.0
742.0,221.0,101.0,35.0
746.0,212.0,101.0,35.0
747.0,202.0,106.0,37.0
750.0,193.0,106.0,37.0
756.0,185.0,101.0,35.0
762.0,180.0,96.0,34.0
762.0,172.0,96.0,34.0
760.0,163.0,96.0,34.0
754.0,151.0,96.0,34.0
752.0,142.0,92.0,32.0
752.0,124.0,96.0,34.0
757.0,109.0,96.0,34.0
758.0,95.0,101.0,35.0
764.0,83.0,106.0,37.0
771.0,70.0,101.0,35.0
781.0,37.0,91.0,72.0
786.0,26.0,91.0,72.0
793.0,16.0,91.0,72.0
799.0,7.0,87.0,69.0
818.0,5.0,73.0,44.0
824.0,-1.0,73.0,44.0
849.0,0.0,73.0,44.0
0
0
0
0
0
0
0
0
0
0
0
0
0
0
0
0
0
0
0
0
0
742.0,4.0,90.0,37.0
742.0,7.0,90.0,37.0
739.0,8.0,86.0,35.0
732.0,7.0,90.0,37.0
730.0,3.0,90.0,37.0
728.0,0.0,90.0,37.0
729.0,-1.0,90.0,37.0
731.0,-1.0,90.0,37.0
746.0,4.0,73.0,55.0
747.0,0.0,73.0,55.0
746.0,1.0,73.0,55.0
744.0,0.0,73.0,55.0
744.0,0.0,73.0,55.0
744.0,1.0,73.0,55.0
744.0,3.0,73.0,55.0
743.0,4.0,73.0,55.0
742.0,2.0,73.0,55.0
742.0,1.0,73.0,55.0
741.0,1.0,73.0,55.0
742.0,1.0,73.0,55.0
742.0,1.0,73.0,55.0
743.0,1.0,73.0,55.0
743.0,0.0,73.0,55.0
744.0,0.0,73.0,55.0
745.0,-1.0,73.0,55.0
747.0,0.0,73.0,55.0
744.0,0.0,77.0,58.0
745.0,0.0,77.0,58.0
748.0,1.0,77.0,58.0
749.0,-1.0,77.0,58.0
748.0,0.0,77.0,58.0
748.0,0.0,77.0,58.0
747.0,-1.0,77.0,58.0
746.0,0.0,80.0,61.0
745.0,-1.0,82.0,21.0
745.0,0.0,82.0,21.0
739.0,0.0,82.0,21.0
736.0,-1.0,82.0,21.0
0
0
0
0
0
0
0
0
0
0
0
0
0
0
0
0
0
0
0
0
0
0
0
0
0
0
0
0
0
0
0
0
0
0
0
0
0
0
0
0
0
0
0
0
0
0
0
0
0
0
0
0
0
0
0
0
0
0
0
0
0
0
0
0
0
0
0
0
0
0
0
0
0
0
0
0
0
0
0
0
0
0
0
0
0
0
0
0
0
0
0
0
0
0
0
0
0
0
0
0
0
0
0
0
0
0
0
0
0
0
0
0
0
0
0
0
0
0
0
0
0
0
0
0
0
0
0
0
0
0
0
0
0
0
0
0
0
0
0
0
0
0
0
0
0
0
0
0
0
0
0
0
0
0
0
0
0
0
0
0
0
0
0
0
0
0
760.0,2.0,128.0,49.0
757.0,0.0,139.0,58.0
757.0,1.0,157.0,64.0
760.0,3.0,160.0,72.0
756.0,0.0,172.0,74.0
755.0,1.0,165.0,78.0
761.0,4.0,190.0,72.0
763.0,4.0,164.0,74.0
767.0,2.0,207.0,83.0
760.0,6.0,217.0,75.0
755.0,1.0,217.0,75.0
751.0,1.0,217.0,75.0
749.0,1.0,217.0,75.0
749.0,5.0,228.0,79.0
776.0,0.0,250.0,88.0
772.0,0.0,250.0,88.0
776.0,1.0,250.0,88.0
786.0,7.0,250.0,88.0
784.0,2.0,301.0,84.0
815.0,2.0,239.0,80.0
823.0,12.0,239.0,80.0
826.0,15.0,251.0,84.0
814.0,2.0,276.0,105.0
820.0,12.0,276.0,105.0
824.0,21.0,276.0,105.0
822.0,4.0,281.0,122.0
813.0,11.0,281.0,122.0
809.0,12.0,281.0,122.0
805.0,11.0,281.0,122.0
799.0,11.0,281.0,122.0
800.0,14.0,268.0,116.0
795.0,12.0,281.0,122.0
795.0,17.0,281.0,122.0
795.0,20.0,316.0,176.0
804.0,24.0,316.0,176.0
801.0,24.0,332.0,185.0
801.0,25.0,332.0,185.0
801.0,25.0,332.0,185.0
792.0,19.0,348.0,194.0
792.0,19.0,348.0,194.0
783.0,16.0,366.0,204.0
786.0,20.0,366.0,204.0
790.0,29.0,366.0,204.0
797.0,41.0,374.0,198.0
800.0,46.0,374.0,198.0
805.0,53.0,374.0,198.0
809.0,60.0,374.0,198.0
809.0,64.0,374.0,198.0
799.0,59.0,393.0,208.0
796.0,62.0,393.0,208.0
795.0,62.0,393.0,208.0
798.0,63.0,393.0,208.0
800.0,66.0,393.0,208.0
802.0,68.0,393.0,208.0
770.0,72.0,428.0,184.0
764.0,79.0,428.0,184.0
767.0,84.0,428.0,184.0
770.0,85.0,428.0,184.0
774.0,87.0,428.0,184.0
780.0,90.0,428.0,184.0
781.0,93.0,428.0,184.0
783.0,94.0,428.0,184.0
781.0,91.0,428.0,184.0
776.0,86.0,428.0,184.0
764.0,77.0,428.0,184.0
740.0,57.0,449.0,193.0
804.0,111.0,289.0,186.0
789.0,101.0,289.0,186.0
786.0,97.0,289.0,186.0
786.0,95.0,289.0,186.0
786.0,89.0,303.0,195.0
840.0,74.0,176.0,251.0
843.0,72.0,176.0,251.0
840.0,65.0,176.0,251.0
841.0,60.0,176.0,251.0
845.0,59.0,176.0,251.0
849.0,60.0,176.0,251.0
851.0,59.0,176.0,251.0
787.0,73.0,236.0,206.0
793.0,76.0,236.0,206.0
801.0,77.0,236.0,206.0
808.0,79.0,236.0,206.0
817.0,22.0,227.0,262.0
818.0,29.0,227.0,262.0
816.0,40.0,227.0,262.0
812.0,38.0,227.0,262.0
811.0,-21.0,238.0,275.0
818.0,55.0,219.0,271.0
812.0,55.0,219.0,271.0
806.0,52.0,219.0,271.0
801.0,58.0,219.0,271.0
797.0,44.0,219.0,271.0
816.0,116.0,236.0,226.0
809.0,102.0,236.0,226.0
811.0,102.0,236.0,226.0
763.0,131.0,234.0,218.0
768.0,120.0,234.0,218.0
764.0,119.0,234.0,218.0
753.0,112.0,234.0,218.0
747.0,107.0,234.0,218.0
709.0,126.0,251.0,214.0
704.0,123.0,251.0,214.0
687.0,120.0,251.0,214.0
674.0,119.0,251.0,214.0
652.0,125.0,284.0,196.0
648.0,129.0,284.0,196.0
638.0,129.0,284.0,196.0
633.0,130.0,284.0,196.0
629.0,134.0,284.0,196.0
637.0,107.0,276.0,222.0
632.0,108.0,276.0,222.0
630.0,112.0,276.0,222.0
624.0,116.0,276.0,222.0
618.0,121.0,276.0,222.0
616.0,123.0,276.0,222.0
643.0,169.0,175.0,187.0
635.0,172.0,175.0,187.0
629.0,174.0,175.0,187.0
621.0,175.0,175.0,187.0
617.0,177.0,175.0,187.0
609.0,176.0,175.0,187.0
600.0,175.0,175.0,187.0
589.0,170.0,175.0,187.0
582.0,169.0,175.0,187.0
576.0,168.0,175.0,187.0
583.0,162.0,138.0,140.0
580.0,157.0,138.0,140.0
579.0,150.0,138.0,140.0
578.0,140.0,138.0,140.0
573.0,134.0,138.0,140.0
569.0,126.0,138.0,140.0
566.0,116.0,138.0,140.0
568.0,104.0,131.0,133.0
565.0,91.0,131.0,133.0
563.0,78.0,131.0,133.0
558.0,67.0,131.0,133.0
553.0,54.0,131.0,133.0
548.0,39.0,131.0,133.0
543.0,26.0,131.0,133.0
543.0,18.0,100.0,97.0
549.0,4.0,100.0,97.0
553.0,-1.0,100.0,97.0
552.0,-1.0,100.0,97.0
549.0,-1.0,100.0,97.0
543.0,-18.0,109.0,88.0
544.0,-19.0,109.0,88.0
545.0,-18.0,109.0,88.0
545.0,-18.0,109.0,88.0
543.0,-18.0,109.0,88.0
542.0,-19.0,109.0,88.0
539.0,-21.0,109.0,88.0
536.0,-26.0,109.0,88.0
537.0,-26.0,109.0,88.0
535.0,-27.0,109.0,88.0
534.0,-19.0,109.0,88.0
572.0,2.0,153.0,42.0
588.0,6.0,153.0,42.0
593.0,11.0,153.0,42.0
598.0,2.0,184.0,39.0
609.0,8.0,184.0,39.0
631.0,18.0,175.0,37.0
615.0,1.0,182.0,60.0
625.0,2.0,177.0,68.0
625.0,2.0,171.0,72.0
637.0,2.0,168.0,86.0
643.0,0.0,172.0,100.0
659.0,6.0,166.0,99.0
668.0,3.0,164.0,107.0
669.0,6.0,157.0,101.0
677.0,6.0,154.0,101.0
690.0,3.0,144.0,114.0
700.0,7.0,140.0,123.0
694.0,7.0,149.0,129.0
702.0,1.0,147.0,127.0
702.0,3.0,154.0,130.0
701.0,3.0,156.0,135.0
708.0,3.0,156.0,135.0
714.0,3.0,156.0,135.0
718.0,5.0,156.0,135.0
725.0,7.0,156.0,135.0
731.0,6.0,156.0,135.0
737.0,8.0,156.0,135.0
743.0,38.0,175.0,95.0
757.0,41.0,175.0,95.0
769.0,44.0,175.0,95.0
774.0,48.0,175.0,95.0
779.0,49.0,175.0,95.0
782.0,52.0,175.0,95.0
793.0,54.0,175.0,95.0
765.0,49.0,208.0,81.0
771.0,52.0,208.0,81.0
775.0,55.0,208.0,81.0
781.0,57.0,208.0,81.0
783.0,58.0,208.0,81.0
789.0,60.0,208.0,81.0
796.0,62.0,208.0,81.0
799.0,65.0,208.0,81.0
806.0,68.0,208.0,81.0
807.0,70.0,208.0,81.0
810.0,72.0,208.0,81.0
814.0,73.0,208.0,81.0
819.0,78.0,208.0,81.0
821.0,82.0,208.0,81.0
869.0,78.0,149.0,75.0
870.0,84.0,149.0,75.0
875.0,91.0,149.0,75.0
878.0,96.0,149.0,75.0
881.0,101.0,149.0,75.0
861.0,80.0,183.0,99.0
865.0,90.0,183.0,99.0
866.0,92.0,183.0,99.0
872.0,99.0,183.0,99.0
865.0,72.0,156.0,122.0
871.0,77.0,156.0,122.0
876.0,82.0,156.0,122.0
880.0,87.0,156.0,122.0
880.0,86.0,156.0,122.0
881.0,88.0,156.0,122.0
882.0,90.0,156.0,122.0
881.0,91.0,156.0,122.0
883.0,93.0,156.0,122.0
883.0,96.0,156.0,122.0
888.0,102.0,156.0,122.0
888.0,105.0,164.0,128.0
888.0,107.0,164.0,128.0
887.0,108.0,164.0,128.0
888.0,113.0,164.0,128.0
888.0,116.0,164.0,128.0
892.0,121.0,164.0,128.0
895.0,126.0,164.0,128.0
900.0,130.0,164.0,128.0
907.0,158.0,196.0,113.0
901.0,161.0,196.0,113.0
903.0,163.0,196.0,113.0
905.0,165.0,196.0,113.0
911.0,168.0,196.0,113.0
914.0,170.0,196.0,113.0
923.0,173.0,196.0,113.0
926.0,174.0,196.0,113.0
929.0,175.0,196.0,113.0
929.0,172.0,206.0,119.0
930.0,170.0,206.0,119.0
934.0,168.0,206.0,119.0
937.0,168.0,206.0,119.0
935.0,164.0,206.0,119.0
933.0,159.0,216.0,125.0
938.0,161.0,216.0,125.0
938.0,162.0,216.0,125.0
940.0,163.0,227.0,131.0
946.0,168.0,227.0,131.0
955.0,177.0,216.0,125.0
947.0,129.0,236.0,182.0
944.0,135.0,236.0,182.0
947.0,140.0,236.0,182.0
948.0,140.0,236.0,182.0
953.0,147.0,236.0,182.0
956.0,150.0,236.0,182.0
958.0,152.0,236.0,182.0
950.0,100.0,224.0,289.0
950.0,113.0,224.0,289.0
950.0,114.0,224.0,289.0
950.0,117.0,224.0,289.0
950.0,118.0,224.0,289.0
950.0,117.0,224.0,289.0
945.0,110.0,235.0,303.0
959.0,139.0,217.0,331.0
954.0,141.0,217.0,331.0
955.0,141.0,217.0,331.0
953.0,139.0,217.0,331.0
993.0,158.0,197.0,335.0
993.0,157.0,197.0,335.0
993.0,156.0,197.0,335.0
996.0,161.0,197.0,335.0
997.0,159.0,197.0,335.0
987.0,196.0,235.0,357.0
987.0,196.0,235.0,357.0
988.0,198.0,235.0,357.0
989.0,198.0,235.0,357.0
991.0,200.0,235.0,357.0
993.0,205.0,235.0,357.0
995.0,206.0,235.0,357.0
991.0,202.0,235.0,357.0
995.0,206.0,235.0,357.0
1001.0,216.0,235.0,357.0
991.0,300.0,264.0,329.0
987.0,302.0,264.0,329.0
992.0,311.0,264.0,329.0
993.0,319.0,264.0,329.0
996.0,324.0,264.0,329.0
993.0,324.0,264.0,329.0
985.0,322.0,277.0,345.0
982.0,327.0,277.0,345.0
978.0,329.0,277.0,345.0
1004.0,356.0,230.0,336.0
999.0,358.0,230.0,336.0
995.0,358.0,230.0,336.0
990.0,358.0,230.0,336.0
987.0,359.0,230.0,336.0
1007.0,343.0,201.0,360.0
1005.0,347.0,201.0,360.0
1006.0,348.0,201.0,360.0
1006.0,353.0,201.0,360.0
1005.0,355.0,201.0,360.0
1004.0,356.0,201.0,360.0
1003.0,356.0,201.0,360.0
1001.0,358.0,201.0,360.0
999.0,357.0,201.0,360.0
997.0,359.0,201.0,360.0
993.0,360.0,201.0,360.0
990.0,359.0,201.0,360.0
983.0,342.0,211.0,378.0
980.0,341.0,211.0,378.0
978.0,342.0,211.0,378.0
977.0,342.0,211.0,378.0
975.0,342.0,211.0,378.0
973.0,342.0,211.0,378.0
971.0,341.0,211.0,378.0
970.0,341.0,211.0,378.0
965.0,342.0,211.0,378.0
961.0,342.0,211.0,378.0
989.0,302.0,142.0,375.0
978.0,298.0,142.0,375.0
970.0,287.0,149.0,394.0
963.0,285.0,149.0,394.0
954.0,282.0,149.0,394.0
942.0,278.0,149.0,394.0
935.0,276.0,149.0,394.0
927.0,273.0,149.0,394.0
917.0,266.0,149.0,394.0
905.0,256.0,149.0,394.0
899.0,255.0,149.0,394.0
894.0,250.0,149.0,394.0
887.0,251.0,149.0,394.0
898.0,268.0,140.0,386.0
887.0,266.0,140.0,386.0
882.0,268.0,140.0,386.0
875.0,267.0,140.0,386.0
871.0,269.0,140.0,386.0
866.0,270.0,140.0,386.0
862.0,269.0,140.0,386.0
859.0,266.0,140.0,386.0
858.0,269.0,133.0,368.0
856.0,271.0,133.0,368.0
853.0,264.0,133.0,368.0
853.0,264.0,133.0,368.0
849.0,261.0,140.0,386.0
849.0,259.0,140.0,386.0
848.0,259.0,140.0,386.0
847.0,256.0,140.0,386.0
846.0,254.0,140.0,386.0
846.0,256.0,140.0,386.0
845.0,256.0,140.0,386.0
845.0,256.0,140.0,386.0
845.0,255.0,140.0,386.0
845.0,258.0,140.0,386.0
845.0,258.0,140.0,386.0
845.0,260.0,140.0,386.0
843.0,257.0,140.0,386.0
842.0,254.0,140.0,386.0
844.0,250.0,133.0,368.0
844.0,244.0,133.0,368.0
843.0,244.0,133.0,368.0
843.0,239.0,133.0,368.0
843.0,233.0,133.0,368.0
842.0,231.0,133.0,368.0
845.0,228.0,133.0,368.0
846.0,226.0,133.0,368.0
849.0,224.0,133.0,368.0
852.0,225.0,127.0,350.0
853.0,227.0,127.0,350.0
854.0,216.0,133.0,368.0
857.0,220.0,127.0,350.0
860.0,218.0,127.0,350.0
860.0,214.0,127.0,350.0
863.0,213.0,127.0,350.0
868.0,217.0,121.0,333.0
870.0,213.0,121.0,333.0
871.0,214.0,121.0,333.0
872.0,214.0,121.0,333.0
874.0,211.0,121.0,333.0
876.0,209.0,121.0,333.0
880.0,208.0,121.0,333.0
882.0,207.0,121.0,333.0
886.0,210.0,115.0,318.0
890.0,210.0,115.0,318.0
896.0,217.0,110.0,302.0
904.0,223.0,104.0,288.0
912.0,233.0,99.0,274.0
917.0,245.0,99.0,274.0
924.0,256.0,99.0,274.0
933.0,269.0,99.0,274.0
942.0,279.0,99.0,274.0
955.0,293.0,95.0,261.0
961.0,310.0,99.0,274.0
970.0,329.0,99.0,274.0
969.0,379.0,110.0,305.0
979.0,403.0,110.0,305.0
994.0,415.0,110.0,305.0
994.0,447.0,110.0,305.0
998.0,479.0,110.0,305.0
1004.0,509.0,110.0,305.0
1011.0,538.0,110.0,305.0
1039.0,558.0,105.0,290.0
1048.0,590.0,105.0,290.0
1053.0,585.0,110.0,305.0
1063.0,588.0,110.0,305.0
1065.0,581.0,110.0,305.0
1073.0,572.0,115.0,320.0
1075.0,567.0,115.0,320.0
1084.0,548.0,115.0,320.0
1087.0,543.0,115.0,320.0
1087.0,529.0,121.0,336.0
1091.0,523.0,121.0,336.0
1090.0,512.0,127.0,353.0
1087.0,495.0,134.0,371.0
1086.0,490.0,134.0,371.0
1085.0,488.0,134.0,371.0
1085.0,474.0,127.0,353.0
1086.0,466.0,127.0,353.0
1089.0,449.0,127.0,353.0
1061.0,419.0,127.0,353.0
1068.0,463.0,121.0,189.0
0
1043.0,447.0,200.0,171.0
1042.0,430.0,200.0,171.0
1036.0,414.0,200.0,171.0
1028.0,404.0,200.0,171.0
1025.0,398.0,200.0,171.0
1020.0,390.0,200.0,171.0
1011.0,384.0,210.0,180.0
1006.0,370.0,210.0,180.0
1001.0,359.0,210.0,180.0
996.0,344.0,210.0,180.0
980.0,355.0,196.0,119.0
978.0,345.0,196.0,119.0
979.0,335.0,196.0,119.0
989.0,322.0,196.0,119.0
997.0,308.0,196.0,119.0
1006.0,295.0,196.0,119.0
1018.0,282.0,196.0,119.0
1030.0,267.0,196.0,119.0
1035.0,224.0,168.0,153.0
1049.0,210.0,168.0,153.0
1076.0,192.0,168.0,153.0
1119.0,164.0,160.0,146.0
1174.0,131.0,160.0,146.0
1229.0,96.0,160.0,146.0
0
0
0
0
0
0
0
0
0
0
0
0
0
0
0
0
0
0
0
0
0
0
0
911.0,13.0,141.0,65.0
893.0,20.0,141.0,65.0
867.0,25.0,141.0,65.0
846.0,28.0,141.0,65.0
825.0,30.0,141.0,65.0
815.0,34.0,134.0,62.0
800.0,37.0,134.0,62.0
783.0,37.0,141.0,65.0
772.0,38.0,141.0,65.0
765.0,39.0,141.0,65.0
760.0,38.0,141.0,65.0
754.0,38.0,141.0,65.0
750.0,38.0,141.0,65.0
748.0,38.0,141.0,65.0
743.0,38.0,141.0,65.0
738.0,37.0,141.0,65.0
738.0,39.0,134.0,62.0
739.0,41.0,128.0,59.0
730.0,39.0,134.0,62.0
731.0,41.0,128.0,59.0
725.0,39.0,134.0,62.0
723.0,37.0,134.0,62.0
721.0,35.0,134.0,62.0
721.0,34.0,128.0,59.0
719.0,32.0,128.0,59.0
718.0,29.0,128.0,59.0
713.0,24.0,134.0,62.0
711.0,23.0,134.0,62.0
711.0,21.0,134.0,62.0
708.0,20.0,134.0,62.0
711.0,20.0,128.0,59.0
712.0,23.0,122.0,56.0
710.0,23.0,122.0,56.0
709.0,23.0,122.0,56.0
708.0,23.0,122.0,56.0
708.0,21.0,122.0,56.0
706.0,20.0,122.0,56.0
707.0,20.0,116.0,53.0
703.0,18.0,122.0,56.0
702.0,19.0,122.0,56.0
697.0,17.0,128.0,59.0
694.0,17.0,128.0,59.0
690.0,17.0,128.0,59.0
691.0,19.0,122.0,56.0
690.0,22.0,116.0,53.0
689.0,21.0,116.0,53.0
686.0,22.0,116.0,53.0
683.0,23.0,116.0,53.0
678.0,24.0,116.0,53.0
676.0,23.0,116.0,53.0
673.0,23.0,116.0,53.0
671.0,23.0,116.0,53.0
672.0,22.0,110.0,51.0
671.0,24.0,105.0,49.0
667.0,22.0,105.0,49.0
666.0,21.0,105.0,49.0
661.0,21.0,105.0,49.0
659.0,21.0,105.0,49.0
655.0,20.0,105.0,49.0
653.0,20.0,105.0,49.0
650.0,19.0,105.0,49.0
647.0,19.0,105.0,49.0
643.0,19.0,105.0,49.0
640.0,19.0,105.0,49.0
636.0,18.0,105.0,49.0
631.0,19.0,105.0,49.0
628.0,20.0,105.0,49.0
625.0,19.0,105.0,49.0
621.0,20.0,105.0,49.0
620.0,19.0,105.0,49.0
617.0,19.0,105.0,49.0
615.0,20.0,105.0,49.0
612.0,22.0,105.0,49.0
612.0,23.0,105.0,49.0
609.0,26.0,105.0,49.0
605.0,29.0,105.0,49.0
603.0,32.0,105.0,49.0
599.0,33.0,110.0,51.0
596.0,33.0,110.0,51.0
595.0,35.0,110.0,51.0
594.0,36.0,110.0,51.0
592.0,37.0,110.0,51.0
589.0,38.0,110.0,51.0
585.0,38.0,116.0,53.0
583.0,41.0,110.0,51.0
581.0,42.0,110.0,51.0
578.0,43.0,110.0,51.0
574.0,44.0,110.0,51.0
574.0,44.0,105.0,49.0
572.0,46.0,105.0,49.0
568.0,46.0,105.0,49.0
566.0,45.0,105.0,49.0
565.0,46.0,105.0,49.0
563.0,45.0,105.0,49.0
560.0,45.0,105.0,49.0
559.0,46.0,105.0,49.0
559.0,45.0,105.0,49.0
558.0,45.0,105.0,49.0
559.0,45.0,100.0,46.0
559.0,46.0,100.0,46.0
557.0,43.0,105.0,49.0
557.0,43.0,105.0,49.0
558.0,42.0,105.0,49.0
558.0,40.0,105.0,49.0
561.0,39.0,105.0,49.0
558.0,37.0,110.0,51.0
555.0,34.0,116.0,53.0
556.0,33.0,116.0,53.0
553.0,28.0,122.0,56.0
552.0,27.0,122.0,56.0
552.0,25.0,122.0,56.0
552.0,23.0,122.0,56.0
554.0,22.0,122.0,56.0
552.0,21.0,122.0,56.0
554.0,20.0,122.0,56.0
550.0,15.0,128.0,59.0
547.0,11.0,134.0,62.0
547.0,9.0,134.0,62.0
547.0,6.0,134.0,62.0
543.0,-1.0,141.0,65.0
544.0,-1.0,141.0,65.0
545.0,0.0,141.0,65.0
546.0,-1.0,141.0,65.0
544.0,-1.0,141.0,65.0
545.0,0.0,141.0,65.0
541.0,0.0,148.0,68.0
539.0,-1.0,148.0,68.0
534.0,0.0,155.0,72.0
528.0,0.0,163.0,75.0
526.0,0.0,163.0,75.0
524.0,0.0,163.0,75.0
522.0,-1.0,163.0,75.0
516.0,0.0,171.0,79.0
515.0,-1.0,171.0,79.0
514.0,-1.0,171.0,79.0
512.0,0.0,171.0,79.0
512.0,-1.0,171.0,79.0
512.0,0.0,171.0,79.0
510.0,0.0,171.0,79.0
504.0,-1.0,180.0,83.0
499.0,-1.0,189.0,87.0
494.0,-1.0,198.0,91.0
487.0,0.0,208.0,96.0
482.0,-1.0,219.0,101.0
482.0,1.0,219.0,101.0
479.0,2.0,230.0,106.0
478.0,6.0,230.0,106.0
479.0,11.0,230.0,106.0
483.0,14.0,230.0,106.0
481.0,14.0,241.0,111.0
485.0,17.0,241.0,111.0
483.0,16.0,253.0,117.0
493.0,24.0,241.0,111.0
498.0,28.0,241.0,111.0
501.0,31.0,241.0,111.0
497.0,30.0,253.0,117.0
495.0,28.0,266.0,123.0
500.0,30.0,266.0,123.0
508.0,32.0,266.0,123.0
516.0,33.0,266.0,123.0
527.0,35.0,266.0,123.0
530.0,37.0,266.0,123.0
532.0,34.0,279.0,129.0
532.0,31.0,293.0,135.0
530.0,26.0,308.0,142.0
525.0,22.0,323.0,149.0
530.0,25.0,323.0,149.0
525.0,22.0,339.0,156.0
531.0,25.0,339.0,156.0
530.0,22.0,356.0,164.0
534.0,26.0,356.0,164.0
536.0,29.0,356.0,164.0
533.0,27.0,374.0,172.0
534.0,30.0,374.0,172.0
529.0,33.0,374.0,172.0
431.0,5.0,560.0,226.0
443.0,9.0,560.0,226.0
444.0,13.0,560.0,226.0
449.0,19.0,560.0,226.0
437.0,16.0,588.0,237.0
426.0,15.0,617.0,249.0
403.0,3.0,696.0,272.0
405.0,12.0,696.0,272.0
395.0,7.0,731.0,286.0
403.0,14.0,731.0,286.0
416.0,21.0,731.0,286.0
426.0,33.0,731.0,286.0
441.0,0.0,707.0,323.0
469.0,23.0,707.0,323.0
492.0,34.0,707.0,323.0
511.0,48.0,707.0,323.0
523.0,64.0,707.0,323.0
532.0,80.0,707.0,323.0
559.0,43.0,684.0,395.0
592.0,63.0,684.0,395.0
594.0,72.0,684.0,395.0
582.0,72.0,684.0,395.0
555.0,63.0,684.0,395.0
546.0,68.0,684.0,395.0
492.0,46.0,768.0,574.0
482.0,44.0,768.0,574.0
478.0,47.0,768.0,574.0
492.0,40.0,768.0,574.0
474.0,22.0,768.0,464.0
496.0,34.0,768.0,464.0
506.0,57.0,768.0,464.0
512.0,90.0,768.0,464.0
434.0,6.0,784.0,621.0
450.0,32.0,784.0,621.0
455.0,46.0,784.0,621.0
465.0,57.0,784.0,621.0
476.0,59.0,784.0,621.0
495.0,62.0,784.0,621.0
604.0,86.0,747.0,591.0
